benchmarks/VRPTW/TSPTW/solution/n100w60.001.txt.solution
1 38 25 45 43 3 52 20 7 18 86 9 82 84 46 29 74 37 15 30 79 91 33 50 76 81 10 34 59 61 80 99 62 88 22 75 40 69 16 11 78 12 96 97 28 27 44 14 55 51 13 36 53 35 47 77 19 4 2 98 83 60 63 66 41 68 49 73 8 24 89 57 85 87 26 93 65 48 54 32 5 39 71 94 42 72 17 31 6 23 64 67 56 21 92 95 58 90 70 100 101 
655
